558,575
494,311
580,93
753,458
494,501
829,-50
681,826
635,548
681,616
937,489
399,794
1069,124
756,880
681,466
914,639
1137,258
464,833
852,351
681,106
300,25
766,379
681,766
702,385
521,325
633,441
751,503
463,564
947,364
753,458
769,420
624,424
947,213
463,248
729,371
1166,249
681,316
269,107
591,406
966,314
